p cnf 27 93
1 2 3 0
4 5 6 0
7 8 9 0
10 11 12 0
13 14 15 0
16 17 18 0
19 20 21 0
22 23 24 0
25 26 27 0
-1 -2 
-1 -3 
-2 -3 
-4 -5 
-4 -6 
-5 -6 
-7 -8 
-7 -9 
-8 -9 
-10 -11 
-10 -12 
-11 -12 
-13 -14 
-13 -15 
-14 -15 
-16 -17 
-16 -18 
-17 -18 
-19 -20 
-19 -21 
-20 -21 
-22 -23 
-22 -24 
-23 -24 
-25 -26 
-25 -27 
-26 -27 
-1 -4 
-1 -7 
-4 -7 
-2 -5 
-2 -8 
-5 -8 
-3 -6 
-3 -9 
-6 -9 
-10 -13 
-10 -16 
-13 -16 
-11 -14 
-11 -17 
-14 -17 
-12 -15 
-12 -18 
-15 -18 
-19 -22 
-19 -25 
-22 -25 
-20 -23 
-20 -26 
-23 -26 
-21 -24 
-21 -27 
-24 -27 
-1 -10 
-1 -19 
-10 -22 
-2 -11 
-2 -20 
-11 -23 
-3 -12 
-3 -21 
-12 -24 
-4 -10 
-4 -19 
-13 -22 
-5 -11 
-5 -20 
-14 -23 
-6 -12 
-6 -21 
-15 -24 
-7 -10 
-7 -19 
-16 -22 
-8 -11 
-8 -20 
-17 -23 
-9 -12 
-9 -21 
-18 -24 
7 
11 
27 
